100
3479
62 58
49 12
46 62
61 24
87 55
6 117
6 199
32 58
55 179
57 168
8 157
55 28
64 67
99 181
42 160
88 148
58 47
82 107
61 73
12 143
28 22
97 173
97 49
56 27
55 17
62 152
99 68
57 83
65 67
22 46
78 137
13 154
18 101
95 156
17 190
72 147
29 105
44 173
38 187
53 155
63 175
48 149
73 54
18 80
14 43
71 93
87 158
51 182
86 181
38 109
61 187
18 140
46 68
74 26
98 121
14 41
13 56
12 190
80 86
39 52
85 43
60 108
37 159
52 89
70 148
88 110
6 168
79 132
13 40
6 192
18 130
9 101
48 47
38 73
14 187
69 160
33 69
93 20
52 179
45 193
20 119
28 123
99 70
31 195
22 147
28 41
43 58
58 113
44 129
34 11
97 22
48 142
2 17
27 103
53 151
82 114
57 120
5 197
97 39
52 81
